(declare-const delta_tmp Int)
(declare-const delta_glob3_dc Int)
(assert (exists
         ((|tmp'?1| Int) (|glob3_dc'?2| Int) (havoc?3 Int)
            (glob3_pathend_off?4 Int) (glob3_pathlim_off?5 Int) (tmp?6 Int)
            (glob3_dc?7 Int) (MAXPATHLEN?8 Int))
         (and (= glob3_pathend_off?4 0) (< (- glob3_pathlim_off?5) 0)
                (<= (- glob3_dc?7) 0) (= glob3_pathend_off?4 0)
                (< (+ glob3_dc?7 (- glob3_pathlim_off?5) glob3_pathend_off?4) 0)
                (<= (+ (- glob3_dc?7) -1) 0)
                (< (+ (- MAXPATHLEN?8) glob3_dc?7) 0) (= havoc?3 0)
                (= (+ |tmp'?1| (- havoc?3)) 0)
                (= (+ |glob3_dc'?2| (- glob3_dc?7) -1) 0)
                (= delta_glob3_dc (+ |glob3_dc'?2| (- glob3_dc?7)))
                (= delta_tmp (+ |tmp'?1| (- tmp?6))))))
(check-sat)
